opti conp c6

library lib2.lib
dump temp.res
time 15 minutes
maxcyc 5000
lbfgs_order 5000
library lib2.lib
# 
title
ASE calculation                                                                 
end
cell
   8.000000   8.000000  16.000000  90.000000  90.000000  90.000000
fractional  1   
Sr    core 0.0124179 0.9965434 0.0080961 2.00000000 1.00000 0.00000             
O     core 0.2800235 0.2372829 0.0069856 -2.0000000 1.00000 0.00000             
Sr    core 0.9990350 0.4982013 0.0055370 2.00000000 1.00000 0.00000             
O     core 0.2372273 0.7693814 0.9981739 -2.0000000 1.00000 0.00000             
Sr    core 0.5077031 0.0088473 0.0060818 2.00000000 1.00000 0.00000             
O     core 0.7628260 0.2546210 0.0053085 -2.0000000 1.00000 0.00000             
Sr    core 0.5199833 0.4876164 0.0072751 2.00000000 1.00000 0.00000             
O     core 0.7674607 0.7317443 0.0065741 -2.0000000 1.00000 0.00000             
Ti    core 0.2577643 0.2532670 0.1254714 4.00000000 1.00000 0.00000             
O     core 0.5086096 0.2522313 0.1275415 -2.0000000 1.00000 0.00000             
O     core 0.2555743 0.5042355 0.1183835 -2.0000000 1.00000 0.00000             
Ti    core 0.2544555 0.7526353 0.1214276 4.00000000 1.00000 0.00000             
O     core 0.5029221 0.7523548 0.1180539 -2.0000000 1.00000 0.00000             
O     core 0.2560659 0.0021425 0.1273827 -2.0000000 1.00000 0.00000             
Ti    core 0.7588014 0.2503362 0.1243931 4.00000000 1.00000 0.00000             
O     core 0.0095007 0.2519585 0.1232106 -2.0000000 1.00000 0.00000             
O     core 0.7561001 0.5010133 0.1282421 -2.0000000 1.00000 0.00000             
Ti    core 0.7540688 0.7509007 0.1253901 4.00000000 1.00000 0.00000             
O     core 0.0046909 0.7521295 0.1270807 -2.0000000 1.00000 0.00000             
O     core 0.7556677 0.9997128 0.1219226 -2.0000000 1.00000 0.00000             
Sr    core 0.0017338 0.0048098 0.2438238 2.00000000 1.00000 0.00000             
O     core 0.2497779 0.2653321 0.2435146 -2.0000000 1.00000 0.00000             
Sr    core 0.0019096 0.5061814 0.2441631 2.00000000 1.00000 0.00000             
O     core 0.2580342 0.7479891 0.2423148 -2.0000000 1.00000 0.00000             
Sr    core 0.5006828 0.0050409 0.2441857 2.00000000 1.00000 0.00000             
O     core 0.7573976 0.2484679 0.2437229 -2.0000000 1.00000 0.00000             
Sr    core 0.5006232 0.5061293 0.2439602 2.00000000 1.00000 0.00000             
O     core 0.7407522 0.7595968 0.2434539 -2.0000000 1.00000 0.00000             
Ti    core 0.2456040 0.2590178 0.3630416 4.00000000 1.00000 0.00000             
O     core 0.4974214 0.2593562 0.3615311 -2.0000000 1.00000 0.00000             
O     core 0.2457127 0.5096364 0.3667058 -2.0000000 1.00000 0.00000             
Ti    core 0.2452269 0.7598915 0.3626048 4.00000000 1.00000 0.00000             
O     core 0.4957358 0.7594215 0.3668737 -2.0000000 1.00000 0.00000             
O     core 0.2466443 0.0095342 0.3572048 -2.0000000 1.00000 0.00000             
Ti    core 0.7480556 0.2579461 0.3632739 4.00000000 1.00000 0.00000             
O     core 0.9971057 0.2592346 0.3641843 -2.0000000 1.00000 0.00000             
O     core 0.7459428 0.5083869 0.3605451 -2.0000000 1.00000 0.00000             
Ti    core 0.7463456 0.7592760 0.3632564 4.00000000 1.00000 0.00000             
O     core 0.9956067 0.7587625 0.3574229 -2.0000000 1.00000 0.00000             
O     core 0.7460743 0.0083592 0.3653599 -2.0000000 1.00000 0.00000             
Sr    core 0.9899903 0.0126369 0.4831420 2.00000000 1.00000 0.00000             
O     core 0.2458708 0.2504035 0.4801653 -2.0000000 1.00000 0.00000             
Sr    core 0.9867708 0.5155536 0.4821271 2.00000000 1.00000 0.00000             
O     core 0.2293179 0.7755434 0.4795462 -2.0000000 1.00000 0.00000             
Sr    core 0.4858961 0.0178180 0.4807160 2.00000000 1.00000 0.00000             
O     core 0.7418999 0.2657731 0.4811892 -2.0000000 1.00000 0.00000             
Sr    core 0.4958574 0.5064932 0.4784249 2.00000000 1.00000 0.00000             
O     core 0.7535151 0.7557758 0.4807191 -2.0000000 1.00000 0.00000             
Sr    core 0.2059755 0.2817313 0.6263671 2.00000000 1.00000 0.00000             
O     core 0.4412884 0.5490624 0.6199660 -2.0000000 1.00000 0.00000             
Sr    core 0.2251716 0.7676612 0.6266288 2.00000000 1.00000 0.00000             
O     core 0.5008180 0.0207485 0.6294274 -2.0000000 1.00000 0.00000             
Sr    core 0.7337900 0.2601542 0.6340850 2.00000000 1.00000 0.00000             
O     core 0.9893916 0.4974548 0.6323287 -2.0000000 1.00000 0.00000             
Sr    core 0.7056807 0.7923283 0.6262297 2.00000000 1.00000 0.00000             
O     core 0.9574857 0.0394325 0.6346418 -2.0000000 1.00000 0.00000             
Ti    core 0.0024953 0.9881543 0.7483357 4.00000000 1.00000 0.00000             
O     core 0.2193945 0.0395285 0.7233434 -2.0000000 1.00000 0.00000             
O     core 0.9243412 0.3019731 0.7697116 -2.0000000 1.00000 0.00000             
Ti    core 0.9400733 0.5380899 0.7465862 4.00000000 1.00000 0.00000             
O     core 0.2254999 0.5660934 0.7615061 -2.0000000 1.00000 0.00000             
O     core 0.9390835 0.7742463 0.7250918 -2.0000000 1.00000 0.00000             
Ti    core 0.4589908 0.0466862 0.7466124 4.00000000 1.00000 0.00000             
O     core 0.7005896 0.0632237 0.7663946 -2.0000000 1.00000 0.00000             
O     core 0.4338309 0.2971051 0.7315909 -2.0000000 1.00000 0.00000             
Ti    core 0.4660549 0.5281281 0.7342900 4.00000000 1.00000 0.00000             
O     core 0.6962333 0.5433890 0.7252639 -2.0000000 1.00000 0.00000             
O     core 0.4525380 0.7840395 0.7548870 -2.0000000 1.00000 0.00000             
Ti    core 0.2550593 0.2668217 0.8926421 4.00000000 1.00000 0.00000             
O     core 0.6121548 0.3614456 0.8734739 -2.0000000 1.00000 0.00000             
O     core 0.2638919 0.4931728 0.9045927 -2.0000000 1.00000 0.00000             
Ti    core 0.2742091 0.7262142 0.8779294 4.00000000 1.00000 0.00000             
O     core 0.5101328 0.7355567 0.9016603 -2.0000000 1.00000 0.00000             
O     core 0.3854444 0.0945495 0.8602957 -2.0000000 1.00000 0.00000             
Ti    core 0.7868923 0.2209765 0.8714995 4.00000000 1.00000 0.00000             
O     core 0.0310438 0.2220814 0.8997693 -2.0000000 1.00000 0.00000             
O     core 0.8823487 0.6041220 0.8599228 -2.0000000 1.00000 0.00000             
Ti    core 0.7354880 0.7606288 0.8930444 4.00000000 1.00000 0.00000             
O     core 0.1088087 0.8746356 0.8478623 -2.0000000 1.00000 0.00000             
O     core 0.7793141 0.9826513 0.9016216 -2.0000000 1.00000 0.00000             
