opti conp

library library.lib
dump temp.res
time 15 minutes
maxcyc 5000
lbfgs_order 5000
library library.lib
# 
title
ASE calculation                                                                 
end
cell
   5.800000   5.799573  20.800800  90.000000  90.000000 120.002440
fractional  1   
Ba    core 0.0071876 0.9972471 0.0620057 0.16900000 1.00000 0.00000             
O     core 0.0903809 0.5021564 0.0818453 0.90000000 1.00000 0.00000             
O     core 0.5058584 0.9364196 0.0838352 0.90000000 1.00000 0.00000             
O     core 0.5301977 0.4642932 0.0709973 0.90000000 1.00000 0.00000             
In    core 0.7403984 0.2786723 0.0508537 3.00000000 1.00000 0.00000             
Ba    core 0.3516578 0.6680164 0.1747966 0.16900000 1.00000 0.00000             
O     core 0.9642552 0.9941630 0.1897072 0.90000000 1.00000 0.00000             
Al    core 0.9915758 0.0054553 0.2675905 3.00000000 1.00000 0.00000             
Ba    core 0.6554567 0.3400516 0.3008354 0.16900000 1.00000 0.00000             
O     core 0.7003589 0.8489744 0.3147064 0.90000000 1.00000 0.00000             
O     core 0.1441589 0.3039127 0.3109143 0.90000000 1.00000 0.00000             
O     core 0.1508148 0.8655095 0.3105175 0.90000000 1.00000 0.00000             
In    core 0.9962505 0.9986309 0.3895134 3.00000000 1.00000 0.00000             
Ba    core 0.3352395 0.6679176 0.4573050 0.16900000 1.00000 0.00000             
O     core 0.3388182 0.1702892 0.4481980 0.90000000 1.00000 0.00000             
O     core 0.8273176 0.6487147 0.4493582 0.90000000 1.00000 0.00000             
O     core 0.8144345 0.1600633 0.4503031 0.90000000 1.00000 0.00000             
Al    core 0.6602253 0.3278581 0.4534411 3.00000000 1.00000 0.00000             
Ba    core 0.9983866 0.0501087 0.5989279 0.16900000 1.00000 0.00000             
O     core 0.3558594 0.6423174 0.5702627 0.90000000 1.00000 0.00000             
Al    core 0.6632259 0.3814191 0.6447567 3.00000000 1.00000 0.00000             
Ba    core 0.3284082 0.6831983 0.7145761 0.16900000 1.00000 0.00000             
O     core 0.3705747 0.2057850 0.6797718 0.90000000 1.00000 0.00000             
O     core 0.8109667 0.6670518 0.6836917 0.90000000 1.00000 0.00000             
O     core 0.8196704 0.2319596 0.6753145 0.90000000 1.00000 0.00000             
In    core 0.6611474 0.3517332 0.7620974 3.00000000 1.00000 0.00000             
Ba    core 0.9678864 0.0158892 0.8423915 0.16900000 1.00000 0.00000             
O     core 0.9860884 0.5147275 0.8230713 0.90000000 1.00000 0.00000             
O     core 0.5071593 0.0217820 0.8207032 0.90000000 1.00000 0.00000             
O     core 0.5045949 0.4984236 0.8266174 0.90000000 1.00000 0.00000             
In    core 0.6631661 0.3386746 0.8921736 3.00000000 1.00000 0.00000             
Ba    core 0.2822379 0.7347117 0.9135177 0.16900000 1.00000 0.00000             
O     core 0.3236773 0.2147293 0.9525238 0.90000000 1.00000 0.00000             
O     core 0.7762094 0.6547701 0.9565000 0.90000000 1.00000 0.00000             
O     core 0.8087988 0.1711056 0.9532661 0.90000000 1.00000 0.00000             
Al    core 0.4833066 0.4958615 0.9974689 3.00000000 1.00000 0.00000             
Ba    shel 0.0124106 0.9894989 0.0648521 1.83100000 1.00000 0.00000             
O     shel 0.0718671 0.4868397 0.0803359 -2.9000000 1.00000 0.00000             
O     shel 0.5208221 0.9540044 0.0826214 -2.9000000 1.00000 0.00000             
O     shel 0.5338053 0.4603195 0.0633377 -2.9000000 1.00000 0.00000             
Ba    shel 0.3519606 0.6676963 0.1754064 1.83100000 1.00000 0.00000             
O     shel 0.9665508 0.9942551 0.1953767 -2.9000000 1.00000 0.00000             
Ba    shel 0.6560709 0.3397604 0.3004006 1.83100000 1.00000 0.00000             
O     shel 0.7215173 0.8591021 0.3140763 -2.9000000 1.00000 0.00000             
O     shel 0.1336748 0.2827400 0.3099596 -2.9000000 1.00000 0.00000             
O     shel 0.1401155 0.8762013 0.3097936 -2.9000000 1.00000 0.00000             
Ba    shel 0.3348215 0.6677941 0.4569155 1.83100000 1.00000 0.00000             
O     shel 0.3573820 0.1793688 0.4472308 -2.9000000 1.00000 0.00000             
O     shel 0.8171902 0.6291100 0.4483020 -2.9000000 1.00000 0.00000             
O     shel 0.8056739 0.1702941 0.4493329 -2.9000000 1.00000 0.00000             
Ba    shel 0.9983272 0.0499084 0.5981955 1.83100000 1.00000 0.00000             
O     shel 0.3560145 0.6401920 0.5694272 -2.9000000 1.00000 0.00000             
Ba    shel 0.3283122 0.6837202 0.7141063 1.83100000 1.00000 0.00000             
O     shel 0.3939451 0.2205173 0.6777215 -2.9000000 1.00000 0.00000             
O     shel 0.7979281 0.6433785 0.6812502 -2.9000000 1.00000 0.00000             
O     shel 0.8087331 0.2432611 0.6734149 -2.9000000 1.00000 0.00000             
Ba    shel 0.9686094 0.0163087 0.8422099 1.83100000 1.00000 0.00000             
O     shel 0.9720399 0.5076459 0.8236018 -2.9000000 1.00000 0.00000             
O     shel 0.5147762 0.0360665 0.8211164 -2.9000000 1.00000 0.00000             
O     shel 0.5127266 0.4911758 0.8259120 -2.9000000 1.00000 0.00000             
Ba    shel 0.2822236 0.7343604 0.9137671 1.83100000 1.00000 0.00000             
O     shel 0.3407880 0.2354976 0.9540069 -2.9000000 1.00000 0.00000             
O     shel 0.7551072 0.6376579 0.9574603 -2.9000000 1.00000 0.00000             
O     shel 0.8015827 0.1788700 0.9525794 -2.9000000 1.00000 0.00000             
